NAME: ex2
COMMENT: 
DIMENSION: 50
TYPE: ATSP
EDGE_WEIGHT_TYPE: EXPLICIT
EDGE_WEIGHT_FORMAT: FULL_MATRIX
EDGE_WEIGHT_SECTION
 44.3 30.23 43.62 7.44 25.06 47.74 13.05 49.79 43.88 29.27
 22.97 9.68 17.86 26.97 12.27 3.21 32.06 28.25 48.41 31.49
 37.76 38.55 49.74 47.29 36.63 7.72 34.62 30.61 37.72 44.23
 28.99 19.29 3.28 33.28 47.41 37.14 37.04 3.76 35.05 32.39
 42.0 27.05 27.43 9.38 30.05 6.52 42.16 3.81 20.44 32.32
EOF
